toybox/dimacs_unique/toybox-2020-02-17_04-11-07.dimacs
c 1 CONFIG_HELP
c 2 CONFIG_DHCPD
c 3 CONFIG_CHCON
c 4 CONFIG_TOYBOX_LIBCRYPTO
c 5 CONFIG_TCPSVD
c 6 CONFIG_W
c 7 CONFIG_TIME
c 8 CONFIG_KLOGD_SOURCE_RING_BUFFER
c 9 CONFIG_SULOGIN
c 10 CONFIG_ID_Z
c 11 CONFIG_FGREP
c 12 CONFIG_SENDEVENT
c 13 CONFIG_MDEV_CONF
c 14 CONFIG_TOYBOX_PRLIMIT
c 15 CONFIG_NBD_CLIENT
c 16 CONFIG_LOAD_POLICY
c 17 CONFIG_MKDIR_Z
c 18 CONFIG_UNSHARE
c 19 CONFIG_TOYBOX_UID_SYS
c 20 CONFIG_EGREP
c 21 CONFIG_ID
c 22 CONFIG_SETENFORCE
c 23 CONFIG_RESTORECON
c 24 CONFIG_BOOTCHARTD
c 25 CONFIG_LOGIN
c 26 CONFIG_KILL
c 27 CONFIG_ULIMIT
c 28 CONFIG_FSFREEZE
c 29 CONFIG_GREP
c 30 CONFIG_TOYBOX_ICONV
c 31 CONFIG_MKNOD_Z
c 32 CONFIG_LOG
c 33 CONFIG_MKE2FS_EXTENDED
c 34 CONFIG_WHO
c 35 CONFIG_TOYBOX_FIFREEZE
c 36 CONFIG_CP_PRESERVE
c 37 CONFIG_CP
c 38 CONFIG_RUNCON
c 39 CONFIG_LSPCI_TEXT
c 40 CONFIG_TOYBOX_LSM_NONE
c 41 CONFIG_MKE2FS_GEN
c 42 CONFIG_CAT
c 43 CONFIG_TOYBOX_SHADOW
c 44 CONFIG_SHA256SUM
c 45 CONFIG_TOYBOX_SELINUX
c 46 CONFIG_KLOGD
c 47 CONFIG_MKE2FS
c 48 CONFIG_LSPCI
c 49 CONFIG_OPENVT
c 50 CONFIG_ICONV
c 51 CONFIG_GETENFORCE
c 52 CONFIG_MKFIFO_Z
c 53 CONFIG_TOYBOX_FORK
c 54 CONFIG_TOYBOX_HELP
c 55 CONFIG_TOYBOX_FLOAT
c 56 CONFIG_MKNOD
c 57 CONFIG_PASSWD
c 58 CONFIG_SHA224SUM
c 59 CONFIG_TOYBOX_UID_USR
c 60 CONFIG_TOYBOX_CONTAINER
c 61 CONFIG_TOYBOX_FORCE_NOMMU
c 62 CONFIG_NETCAT_LISTEN
c 63 CONFIG_MKE2FS_LABEL
c 64 CONFIG_SEQ
c 65 CONFIG_NSENTER
c 66 CONFIG_SORT_FLOAT
c 67 CONFIG_SU
c 68 CONFIG_CD
c 69 CONFIG_MKPASSWD
c 70 CONFIG_TOYBOX_ANDROID_SCHEDPOLICY
c 71 CONFIG_PASSWD_SAD
c 72 CONFIG_EXIT
c 73 CONFIG_NETCAT
c 74 CONFIG_SHA384SUM
c 75 CONFIG_UPTIME
c 76 CONFIG_CRONTAB
c 77 CONFIG_MKDIR
c 78 CONFIG_MKFIFO
c 79 CONFIG_TOYBOX_ON_ANDROID
c 80 CONFIG_TOYBOX
c 81 CONFIG_TOYBOX_SMACK
c 82 CONFIG_MKE2FS_JOURNAL
c 83 CONFIG_TOYBOX_UTMPX
c 84 CONFIG_SHA512SUM
c 85 CONFIG_CAT_V
c 86 CONFIG_DEBUG_DHCP
c 87 CONFIG_TOYBOX_GETRANDOM
c 88 CONFIG_MDEV
c 89 CONFIG_KILLALL5
c 90 CONFIG_TOYBOX_HELP_DASHDASH
c 91 __Root__
p cnf 91 176
91 0
-78 91 0
-52 91 0
-45 91 0
-51 91 0
-59 91 0
-57 91 0
-71 91 0
-58 91 0
-4 91 0
-84 91 0
-77 91 0
-17 91 0
-40 91 0
-3 91 0
-47 91 0
-82 91 0
-54 91 0
-90 91 0
-10 91 0
-21 91 0
-33 91 0
-60 91 0
-38 91 0
-68 91 0
-20 91 0
-29 91 0
-41 91 0
-13 91 0
-88 91 0
-65 91 0
-53 91 0
-24 91 0
-80 91 0
-61 91 0
-14 91 0
-27 91 0
-81 91 0
-64 91 0
-55 91 0
-5 91 0
-6 91 0
-83 91 0
-19 91 0
-43 91 0
-9 91 0
-63 91 0
-11 91 0
-85 91 0
-42 91 0
-76 91 0
-28 91 0
-35 91 0
-37 91 0
-36 91 0
-34 91 0
-66 91 0
-87 91 0
-44 91 0
-30 91 0
-50 91 0
-73 91 0
-62 91 0
-31 91 0
-56 91 0
-16 91 0
-70 91 0
-39 91 0
-48 91 0
-25 91 0
-26 91 0
-89 91 0
-69 91 0
-79 91 0
-12 91 0
-22 91 0
-46 91 0
-8 91 0
-1 91 0
-2 91 0
-86 91 0
-7 91 0
-74 91 0
-67 91 0
-18 91 0
-72 91 0
-23 91 0
-75 91 0
-15 91 0
-49 91 0
-32 91 0
-52 78 0
45 -51 0
59 0
57 -71 0
4 -58 0
4 -84 0
17 40 -77 0
-3 45 0
47 -82 0
54 -90 0
10 -21 40 0
-33 47 0
60 0
-38 45 0
-68 0
20 -29 0
-41 47 0
-13 88 0
60 -65 0
-24 53 0
80 0
53 61 0
14 -27 0
-40 -81 0
55 -64 0
-10 21 0
-5 53 0
-6 83 0
19 0
-9 43 0
47 -63 0
-11 29 0
42 -85 0
53 -76 0
-28 35 0
-36 37 0
-34 83 0
-55 66 0
43 -57 0
87 0
4 -44 0
30 0
-17 77 0
30 -50 0
-17 -40 0
-45 -81 0
-62 73 0
43 0
31 40 -56 0
14 0
-16 45 0
-70 0
-39 48 0
-31 -40 0
-40 -52 0
-25 43 0
-53 -61 0
26 -89 0
-10 -40 0
-69 -79 0
-12 79 0
-22 45 0
-31 56 0
-8 46 0
-1 54 0
2 -86 0
-7 55 0
-20 29 0
4 -74 0
43 -67 0
-18 60 0
-72 0
-79 0
83 0
-40 -45 0
11 -29 0
-23 45 0
35 0
40 52 -78 0
-75 83 0
55 -66 0
-15 53 0
-49 53 0
40 45 81 0
-32 79 0
